param set_len = 16;
param target := 35509742;
set values := 6137513, 6503438, 3794845, 6280612, 3834492, 26410, 6843043, 6674805, 311178, 2002333, 2420572, 5102926, 7087078, 7934137, 4513040, 5936449, ;
